c 3 - XORSAT
p cnf 30 120
-1 -3 -5 0
-1 3 5 0
1 -3 5 0
1 3 -5 0
-8 -15 -17 0
-8 15 17 0
8 -15 17 0
8 15 -17 0
5 19 20 0
-5 -19 20 0
-5 19 -20 0
5 -19 -20 0
11 12 30 0
-11 -12 30 0
-11 12 -30 0
11 -12 -30 0
4 18 28 0
-4 -18 28 0
-4 18 -28 0
4 -18 -28 0
8 9 15 0
-8 -9 15 0
-8 9 -15 0
8 -9 -15 0
23 28 29 0
-23 -28 29 0
-23 28 -29 0
23 -28 -29 0
22 25 26 0
-22 -25 26 0
-22 25 -26 0
22 -25 -26 0
14 22 12 0
-14 -22 12 0
-14 22 -12 0
14 -22 -12 0
-21 -22 -26 0
-21 22 26 0
21 -22 26 0
21 22 -26 0
6 13 16 0
-6 -13 16 0
-6 13 -16 0
6 -13 -16 0
11 25 29 0
-11 -25 29 0
-11 25 -29 0
11 -25 -29 0
17 24 26 0
-17 -24 26 0
-17 24 -26 0
17 -24 -26 0
-13 -21 -23 0
-13 21 23 0
13 -21 23 0
13 21 -23 0
7 8 9 0
-7 -8 9 0
-7 8 -9 0
7 -8 -9 0
-2 -10 -21 0
-2 10 21 0
2 -10 21 0
2 10 -21 0
6 27 28 0
-6 -27 28 0
-6 27 -28 0
6 -27 -28 0
-1 -20 -29 0
-1 20 29 0
1 -20 29 0
1 20 -29 0
13 27 30 0
-13 -27 30 0
-13 27 -30 0
13 -27 -30 0
-1 -4 -19 0
-1 4 19 0
1 -4 19 0
1 4 -19 0
12 14 20 0
-12 -14 20 0
-12 14 -20 0
12 -14 -20 0
-4 -15 -17 0
-4 15 17 0
4 -15 17 0
4 15 -17 0
-9 -10 -16 0
-9 10 16 0
9 -10 16 0
9 10 -16 0
-18 -10 -19 0
-18 10 19 0
18 -10 19 0
18 10 -19 0
3 11 24 0
-3 -11 24 0
-3 11 -24 0
3 -11 -24 0
3 5 6 0
-3 -5 6 0
-3 5 -6 0
3 -5 -6 0
2 7 27 0
-2 -7 27 0
-2 7 -27 0
2 -7 -27 0
-7 -25 -30 0
-7 25 30 0
7 -25 30 0
7 25 -30 0
-2 -18 -23 0
-2 18 23 0
2 -18 23 0
2 18 -23 0
14 16 24 0
-14 -16 24 0
-14 16 -24 0
14 -16 -24 0
